(set-info :source |printed by MathSAT|)
(declare-fun |!{$(in_main#0)<main.return>}| () Int)
(declare-fun |!{$(in_main#0)<main.return>}.next| () Int)
(declare-fun |!{$(in_main#0)<SIZE>}| () Int)
(declare-fun |!{$(in_main#0)<SIZE>}.next| () Int)
(declare-fun |!{$(in_main#0)<i>}| () Int)
(declare-fun |!{$(in_main#0)<i>}.next| () Int)
(declare-fun |!{$(in_main#0)<j>}| () Int)
(declare-fun |!{$(in_main#0)<j>}.next| () Int)
(declare-fun |!{$(in_main#0)<a.1>}| () (Array Int Int))
(declare-fun |!{$(in_main#0)<a.1>}.next| () (Array Int Int))
(declare-fun |!{$(in_main#0)<b.2>}| () (Array Int Int))
(declare-fun |!{$(in_main#0)<b.2>}.next| () (Array Int Int))
(declare-fun |!{$(in_main#0)<$(in___VERIFIER_nondet_int#0)<h#<__VERIFIER_nondet_int.return>>>}| () Int)
(declare-fun |!{$(in_main#0)<$(in___VERIFIER_nondet_int#2)<h#<__VERIFIER_nondet_int.return>>>}| () Int)
(declare-fun !pc () Int)
(declare-fun !pc.next () Int)
(declare-fun |%{$(in_main#0)<j>}#1| () Int)
(declare-fun |%{$(in_main#0)<a.1>}#1| () (Array Int Int))
(declare-fun |%{$(in_main#0)<b.2>}#1| () (Array Int Int))
(declare-fun |%{$(in_main#0)<main.return>}#1| () Int)
(declare-fun |%{$(in_main#0)<b.2>}#2| () (Array Int Int))
(define-fun .def_32 () Int (! !pc :next !pc.next))
(define-fun .def_35 () Bool (! (= .def_32 2) :init true))
(define-fun .def_179 () Bool (= .def_32 38))
(define-fun .def_127 () Bool (= !pc.next 68))
(define-fun .def_182 () Bool (and .def_127 .def_179))
(define-fun .def_174 () Bool (= |!{$(in_main#0)<j>}.next| 0))
(define-fun .def_10 () Int (! |!{$(in_main#0)<SIZE>}| :next |!{$(in_main#0)<SIZE>}.next|))
(define-fun .def_91 () Bool (= .def_10 |!{$(in_main#0)<SIZE>}.next|))
(define-fun .def_8 () Int (! |!{$(in_main#0)<main.return>}| :next |!{$(in_main#0)<main.return>}.next|))
(define-fun .def_89 () Bool (= .def_8 |!{$(in_main#0)<main.return>}.next|))
(define-fun .def_103 () Bool (and .def_89 .def_91))
(define-fun .def_12 () Int (! |!{$(in_main#0)<i>}| :next |!{$(in_main#0)<i>}.next|))
(define-fun .def_93 () Bool (= .def_12 |!{$(in_main#0)<i>}.next|))
(define-fun .def_104 () Bool (and .def_93 .def_103))
(define-fun .def_175 () Bool (and .def_104 .def_174))
(define-fun .def_16 () (Array Int Int) (! |!{$(in_main#0)<a.1>}| :next |!{$(in_main#0)<a.1>}.next|))
(define-fun .def_97 () Bool (= .def_16 |!{$(in_main#0)<a.1>}.next|))
(define-fun .def_176 () Bool (and .def_97 .def_175))
(define-fun .def_18 () (Array Int Int) (! |!{$(in_main#0)<b.2>}| :next |!{$(in_main#0)<b.2>}.next|))
(define-fun .def_99 () Bool (= .def_18 |!{$(in_main#0)<b.2>}.next|))
(define-fun .def_177 () Bool (and .def_99 .def_176))
(define-fun .def_138 () Bool (<= .def_10 .def_12))
(define-fun .def_178 () Bool (and .def_138 .def_177))
(define-fun .def_183 () Bool (and .def_178 .def_182))
(define-fun .def_66 () Bool (= !pc.next 38))
(define-fun .def_180 () Bool (and .def_66 .def_179))
(define-fun .def_167 () Bool (= |!{$(in_main#0)<$(in___VERIFIER_nondet_int#2)<h#<__VERIFIER_nondet_int.return>>>}| 10))
(define-fun .def_169 () Bool (not .def_167))
(define-fun .def_149 () Bool (= .def_18 |%{$(in_main#0)<b.2>}#2|))
(define-fun .def_170 () Bool (and .def_149 .def_169))
(define-fun .def_143 () (Array Int Int) (store .def_18 .def_12 20))
(define-fun .def_150 () Bool (= .def_143 |%{$(in_main#0)<b.2>}#2|))
(define-fun .def_168 () Bool (and .def_150 .def_167))
(define-fun .def_171 () Bool (or .def_168 .def_170))
(define-fun .def_163 () Bool (= |!{$(in_main#0)<b.2>}.next| |%{$(in_main#0)<b.2>}#2|))
(define-fun .def_140 () (Array Int Int) (store .def_16 .def_12 |!{$(in_main#0)<$(in___VERIFIER_nondet_int#2)<h#<__VERIFIER_nondet_int.return>>>}|))
(define-fun .def_161 () Bool (= |!{$(in_main#0)<a.1>}.next| .def_140))
(define-fun .def_156 () Int (* (- 1) |!{$(in_main#0)<i>}.next|))
(define-fun .def_157 () Int (+ .def_12 .def_156))
(define-fun .def_158 () Bool (= .def_157 (- 2)))
(define-fun .def_159 () Bool (and .def_103 .def_158))
(define-fun .def_14 () Int (! |!{$(in_main#0)<j>}| :next |!{$(in_main#0)<j>}.next|))
(define-fun .def_95 () Bool (= .def_14 |!{$(in_main#0)<j>}.next|))
(define-fun .def_160 () Bool (and .def_95 .def_159))
(define-fun .def_162 () Bool (and .def_160 .def_161))
(define-fun .def_164 () Bool (and .def_162 .def_163))
(define-fun .def_172 () Bool (and .def_164 .def_171))
(define-fun .def_139 () Bool (not .def_138))
(define-fun .def_173 () Bool (and .def_139 .def_172))
(define-fun .def_181 () Bool (and .def_173 .def_180))
(define-fun .def_184 () Bool (or .def_181 .def_183))
(define-fun .def_131 () Bool (= !pc.next 0))
(define-fun .def_122 () Bool (= .def_32 68))
(define-fun .def_132 () Bool (and .def_122 .def_131))
(define-fun .def_69 () Bool (<= .def_10 .def_14))
(define-fun .def_115 () Bool (and .def_69 .def_89))
(define-fun .def_116 () Bool (and .def_91 .def_115))
(define-fun .def_117 () Bool (and .def_93 .def_116))
(define-fun .def_118 () Bool (and .def_95 .def_117))
(define-fun .def_119 () Bool (and .def_97 .def_118))
(define-fun .def_120 () Bool (and .def_99 .def_119))
(define-fun .def_133 () Bool (and .def_120 .def_132))
(define-fun .def_128 () Bool (and .def_122 .def_127))
(define-fun .def_107 () Int (* (- 1) |!{$(in_main#0)<j>}.next|))
(define-fun .def_108 () Int (+ .def_14 .def_107))
(define-fun .def_109 () Bool (= .def_108 (- 2)))
(define-fun .def_110 () Bool (and .def_104 .def_109))
(define-fun .def_111 () Bool (and .def_97 .def_110))
(define-fun .def_112 () Bool (and .def_99 .def_111))
(define-fun .def_74 () Int (select .def_18 .def_14))
(define-fun .def_76 () Bool (= .def_74 20))
(define-fun .def_77 () Int (ite .def_76 1 0))
(define-fun .def_78 () Bool (= .def_77 0))
(define-fun .def_79 () Bool (not .def_78))
(define-fun .def_71 () Int (select .def_16 .def_14))
(define-fun .def_73 () Bool (= .def_71 10))
(define-fun .def_83 () Bool (and .def_73 .def_79))
(define-fun .def_82 () Bool (not .def_73))
(define-fun .def_86 () Bool (or .def_82 .def_83))
(define-fun .def_113 () Bool (and .def_86 .def_112))
(define-fun .def_70 () Bool (not .def_69))
(define-fun .def_114 () Bool (and .def_70 .def_113))
(define-fun .def_129 () Bool (and .def_114 .def_128))
(define-fun .def_124 () Bool (= !pc.next 96))
(define-fun .def_125 () Bool (and .def_122 .def_124))
(define-fun .def_90 () Bool (and .def_78 .def_89))
(define-fun .def_92 () Bool (and .def_90 .def_91))
(define-fun .def_94 () Bool (and .def_92 .def_93))
(define-fun .def_96 () Bool (and .def_94 .def_95))
(define-fun .def_98 () Bool (and .def_96 .def_97))
(define-fun .def_100 () Bool (and .def_98 .def_99))
(define-fun .def_101 () Bool (and .def_73 .def_100))
(define-fun .def_102 () Bool (and .def_70 .def_101))
(define-fun .def_126 () Bool (and .def_102 .def_125))
(define-fun .def_130 () Bool (or .def_126 .def_129))
(define-fun .def_134 () Bool (or .def_130 .def_133))
(define-fun .def_67 () Bool (and .def_35 .def_66))
(define-fun .def_62 () Bool (= |!{$(in_main#0)<b.2>}.next| |%{$(in_main#0)<b.2>}#1|))
(define-fun .def_60 () Bool (= |!{$(in_main#0)<a.1>}.next| |%{$(in_main#0)<a.1>}#1|))
(define-fun .def_58 () Bool (= |!{$(in_main#0)<j>}.next| |%{$(in_main#0)<j>}#1|))
(define-fun .def_56 () Bool (= |!{$(in_main#0)<i>}.next| 0))
(define-fun .def_54 () Bool (= |!{$(in_main#0)<SIZE>}.next| |!{$(in_main#0)<$(in___VERIFIER_nondet_int#0)<h#<__VERIFIER_nondet_int.return>>>}|))
(define-fun .def_53 () Bool (= |!{$(in_main#0)<main.return>}.next| |%{$(in_main#0)<main.return>}#1|))
(define-fun .def_55 () Bool (and .def_53 .def_54))
(define-fun .def_57 () Bool (and .def_55 .def_56))
(define-fun .def_59 () Bool (and .def_57 .def_58))
(define-fun .def_61 () Bool (and .def_59 .def_60))
(define-fun .def_63 () Bool (and .def_61 .def_62))
(define-fun .def_48 () Bool (<= |!{$(in_main#0)<$(in___VERIFIER_nondet_int#0)<h#<__VERIFIER_nondet_int.return>>>}| 0))
(define-fun .def_49 () Bool (not .def_48))
(define-fun .def_50 () Int (ite .def_49 1 0))
(define-fun .def_51 () Bool (= .def_50 0))
(define-fun .def_52 () Bool (not .def_51))
(define-fun .def_64 () Bool (and .def_52 .def_63))
(define-fun .def_68 () Bool (and .def_64 .def_67))
(define-fun .def_135 () Bool (or .def_68 .def_134))
(define-fun .def_185 () Bool (! (or .def_135 .def_184) :trans true))
(define-fun .def_136 () Bool (= .def_32 96))
(define-fun .def_186 () Bool (! (not .def_136) :invar-property 0 :invar-property-name ||))
(assert true)
